(set-logic HORN)
(declare-fun inv ((_ BitVec 64) (_ BitVec 64) (_ BitVec 64) ) Bool)
(assert (forall ((x (_ BitVec 64)) (y (_ BitVec 64)) (i (_ BitVec 64))) 
       (=> ( and ( = i (_ bv0 64) ) ( bvsge x (_ bv0 64) ) ( bvsge y (_ bv0 64) ) ( bvsge x y ) ) (inv x y i))))
(assert (forall ((x (_ BitVec 64)) (y (_ BitVec 64)) (i (_ BitVec 64)) (x! (_ BitVec 64)) (y! (_ BitVec 64)) (i! (_ BitVec 64))) 
       (=> (and (inv x y i) ( and ( bvslt i y ) ( = i! ( bvadd i (_ bv1 64) ) ) ( = y! y ) ( = x! x ) )) (inv x! y! i!))))
(assert (forall ((x (_ BitVec 64)) (y (_ BitVec 64)) (i (_ BitVec 64))) 
       (=> (inv x y i) ( not ( and ( bvslt i y ) ( or ( bvsge i x ) ( bvsgt (_ bv0 64) i ) ) ) ))))
(check-sat)
